
Gurobi 9.1.2 (linux64, gurobi_cl) logging started Fri Jul 30 13:53:57 2021

Using license file /opt/gurobi/gurobi.lic
Set parameter TimeLimit to value 600
Set parameter Cuts to value 1
Set parameter LogFile to value 912-Cuts1-glass4-1.log
Set parameter Seed to value 1

Gurobi Optimizer version 9.1.2 build v9.1.2rc0 (linux64)
Copyright (c) 2021, Gurobi Optimization, LLC

Read MPS format model from file /nfs/models/mip/glass4.mps.bz2
Reading time = 0.01 seconds
glass4: 396 rows, 322 columns, 1815 nonzeros
Thread count: 4 physical cores, 8 logical processors, using up to 8 threads
Optimize a model with 396 rows, 322 columns and 1815 nonzeros
Model fingerprint: 0x0a9d9037
Variable types: 20 continuous, 302 integer (0 binary)
Coefficient statistics:
  Matrix range     [1e+00, 8e+06]
  Objective range  [1e+00, 1e+06]
  Bounds range     [1e+00, 8e+02]
  RHS range        [1e+00, 8e+06]
Presolve removed 6 rows and 6 columns
Presolve time: 0.00s
Presolved: 390 rows, 316 columns, 1803 nonzeros
Variable types: 19 continuous, 297 integer (297 binary)
Found heuristic solution: objective 3.133356e+09

Root relaxation: objective 8.000024e+08, 72 iterations, 0.00 seconds

    Nodes    |    Current Node    |     Objective Bounds      |     Work
 Expl Unexpl |  Obj  Depth IntInf | Incumbent    BestBd   Gap | It/Node Time

     0     0 8.0000e+08    0   72 3.1334e+09 8.0000e+08  74.5%     -    0s
H    0     0                    2.250018e+09 8.0000e+08  64.4%     -    0s
H    0     0                    2.150017e+09 8.0000e+08  62.8%     -    0s
     0     0 8.0000e+08    0   72 2.1500e+09 8.0000e+08  62.8%     -    0s
     0     0 8.0000e+08    0   72 2.1500e+09 8.0000e+08  62.8%     -    0s
     0     0 8.0000e+08    0   73 2.1500e+09 8.0000e+08  62.8%     -    0s
     0     0 8.0000e+08    0   73 2.1500e+09 8.0000e+08  62.8%     -    0s
     0     2 8.0000e+08    0   73 2.1500e+09 8.0000e+08  62.8%     -    0s
H   67   184                    2.100017e+09 8.0000e+08  61.9%  10.4    0s
H  125   184                    2.050017e+09 8.0000e+08  61.0%   7.2    0s
H  215   413                    2.000016e+09 8.0000e+08  60.0%   5.5    0s
H 1095   984                    2.000016e+09 8.0000e+08  60.0%   5.7    0s
H 1101   938                    1.900016e+09 8.0000e+08  57.9%   5.6    0s
H 1101   891                    1.900016e+09 8.0000e+08  57.9%   5.6    0s
H 1134   876                    1.850015e+09 8.0000e+08  56.8%   7.0    0s
H 1136   833                    1.833350e+09 8.0000e+08  56.4%   7.0    0s
H 1189   830                    1.800016e+09 8.0000e+08  55.6%   7.2    0s
H 1192   790                    1.800016e+09 8.0000e+08  55.6%   7.2    0s
H 1233   789                    1.800016e+09 8.0000e+08  55.6%   7.2    0s
H 2838  1347                    1.783349e+09 8.0000e+08  55.1%   9.1    1s
H 2849  1300                    1.750016e+09 8.0000e+08  54.3%   9.2    1s
H 2851  1238                    1.725015e+09 8.0000e+08  53.6%   9.2    1s
* 3589  1800              61    1.712515e+09 8.0000e+08  53.3%  11.0    1s
* 3594  1800              63    1.707157e+09 8.0000e+08  53.1%  11.0    1s
* 3600  1794              64    1.700014e+09 8.0000e+08  52.9%  11.0    1s
H 8014  4419                    1.650014e+09 8.0001e+08  51.5%  11.7    2s
H 9153  5239                    1.650014e+09 8.0001e+08  51.5%  11.6    2s
H10732  6248                    1.600013e+09 8.0001e+08  50.0%  11.4    2s
H10835  6216                    1.600013e+09 8.0001e+08  50.0%  11.4    2s
H12168  6309                    1.533348e+09 8.0001e+08  47.8%  11.9    3s
H13077  6526                    1.525014e+09 8.0001e+08  47.5%  12.3    3s
 18037  9119 infeasible   43      1.5250e+09 8.0001e+08  47.5%  12.7    5s
H18041  9097                    1.519458e+09 8.0001e+08  47.3%  12.7    5s
H18046  8998                    1.500013e+09 8.0001e+08  46.7%  12.7    5s
H18070  9078                    1.500013e+09 8.0001e+08  46.7%  12.7    5s
*19277  8120              90    1.475013e+09 8.0316e+08  45.5%  13.2    5s
H32802 13783                    1.475009e+09 9.0001e+08  39.0%  15.0    8s
 36642 17933 9.0401e+08   32   61 1.4750e+09 9.0001e+08  39.0%  15.9   10s
 77012 29735 1.3000e+09   38   46 1.4750e+09 1.0000e+09  32.2%  14.5   15s
 104062 37671 1.1000e+09   42   78 1.4750e+09 1.0000e+09  32.2%  15.9   20s
 138253 48209 1.0000e+09   39   48 1.4750e+09 1.0000e+09  32.2%  15.4   25s
 176443 56402 1.4000e+09   45   28 1.4750e+09 1.0091e+09  31.6%  14.9   30s
 207576 61520 1.1000e+09   33   40 1.4750e+09 1.1000e+09  25.4%  15.0   35s
*225064 64575              61    1.466683e+09 1.1000e+09  25.0%  15.2   38s
H228652 56844                    1.400014e+09 1.1000e+09  21.4%  15.2   39s
H228904 56834                    1.400014e+09 1.1000e+09  21.4%  15.2   39s
 228932 56830 1.4000e+09   33   34 1.4000e+09 1.1000e+09  21.4%  15.2   40s
H240276 57143                    1.400013e+09 1.1000e+09  21.4%  15.6   42s
H242403 56972                    1.400013e+09 1.1000e+09  21.4%  15.6   42s
*242444 41921              66    1.350013e+09 1.1000e+09  18.5%  15.6   42s
*243356 21401              70    1.200013e+09 1.1000e+09  8.33%  15.6   42s

Cutting planes:
  Gomory: 91
  Cover: 8
  Implied bound: 26
  MIR: 21
  Flow cover: 190
  GUB cover: 1
  Inf proof: 2
  RLT: 112
  Relax-and-lift: 101

Explored 255182 nodes (3855689 simplex iterations) in 43.31 seconds
Thread count was 8 (of 8 available processors)

Solution count 10: 1.20001e+09 1.35001e+09 1.40001e+09 ... 1.50001e+09

Optimal solution found (tolerance 1.00e-04)
Best objective 1.200012600000e+09, best bound 1.200003400000e+09, gap 0.0008%
